NAME : tsp_92_sol.txt
COMMENT : OR-Tools Guided Local Search
TYPE : TOUR
DIMENSION : 50
COST : 5765
STATUS : ROUTING_SUCCESS
GAP : 0.00% (Reference Solution)
TOUR_SECTION
1
11
39
19
25
37
23
50
7
17
43
4
14
47
45
49
46
8
24
48
13
32
16
44
41
34
10
36
28
12
33
38
5
21
15
18
20
3
2
40
30
42
22
35
29
31
9
26
6
27
-1
